clase06/3matching.lp
\ LP format - for model browsing. Use MPS format to capture full model detail.
Minimize
  5 x0_1 + 4.47213595499958 x0_2 + 5 x0_3 + 7.810249675906654 x0_4
   + 59.21148537234985 x0_5 + 9.433981132056603 x1_2 + 6 x1_3
   + 9.486832980505138 x1_4 + 63.0317380372777 x1_5
   + 8.062257748298549 x2_3 + 8.062257748298549 x2_4
   + 55.44366510251645 x2_5 + 12.72792206135786 x3_4
   + 63.50590523722971 x3_5 + 54.00925846556311 x4_5
Subject To
 R0: - x0_1 - x0_2 - x0_3 - x0_4 - x0_5 + s0 = 0
 R1: - x0_1 - x1_2 - x1_3 - x1_4 - x1_5 + s1 = 0
 R2: - x0_2 - x1_2 - x2_3 - x2_4 - x2_5 + s2 = 0
 R3: - x0_3 - x1_3 - x2_3 - x3_4 - x3_5 + s3 = 0
 R4: - x0_4 - x1_4 - x2_4 - x3_4 - x4_5 + s4 = 0
 R5: - x0_5 - x1_5 - x2_5 - x3_5 - x4_5 + s5 = 0
 R6: - x0_1 + s0 + s1 >= 2
 R7: x0_1 + s0 + s1 <= 4
 R8: - x0_2 + s0 + s2 >= 2
 R9: x0_2 + s0 + s2 <= 4
 R10: - x0_3 + s0 + s3 >= 2
 R11: x0_3 + s0 + s3 <= 4
 R12: - x0_4 + s0 + s4 >= 2
 R13: x0_4 + s0 + s4 <= 4
 R14: - x0_5 + s0 + s5 >= 2
 R15: x0_5 + s0 + s5 <= 4
 R16: - x1_2 + s1 + s2 >= 2
 R17: x1_2 + s1 + s2 <= 4
 R18: - x1_3 + s1 + s3 >= 2
 R19: x1_3 + s1 + s3 <= 4
 R20: - x1_4 + s1 + s4 >= 2
 R21: x1_4 + s1 + s4 <= 4
 R22: - x1_5 + s1 + s5 >= 2
 R23: x1_5 + s1 + s5 <= 4
 R24: - x2_3 + s2 + s3 >= 2
 R25: x2_3 + s2 + s3 <= 4
 R26: - x2_4 + s2 + s4 >= 2
 R27: x2_4 + s2 + s4 <= 4
 R28: - x2_5 + s2 + s5 >= 2
 R29: x2_5 + s2 + s5 <= 4
 R30: - x3_4 + s3 + s4 >= 2
 R31: x3_4 + s3 + s4 <= 4
 R32: - x3_5 + s3 + s5 >= 2
 R33: x3_5 + s3 + s5 <= 4
 R34: - x4_5 + s4 + s5 >= 2
 R35: x4_5 + s4 + s5 <= 4
Bounds
 1 <= s0 <= 2
 1 <= s1 <= 2
 1 <= s2 <= 2
 1 <= s3 <= 2
 1 <= s4 <= 2
 1 <= s5 <= 2
Binaries
 x0_1 x0_2 x0_3 x0_4 x0_5 x1_2 x1_3 x1_4 x1_5 x2_3 x2_4 x2_5 x3_4 x3_5 x4_5
Generals
 s0 s1 s2 s3 s4 s5
End
