clase06/3matching.sol
# Objective value = 7.2071516213861656e+01
x0_1 1
x0_2 0
x0_3 1
x0_4 0
x0_5 0
x1_2 0
x1_3 0
x1_4 0
x1_5 0
x2_3 0
x2_4 1
x2_5 0
x3_4 0
x3_5 0
x4_5 1
s0 2
s1 1
s2 1
s3 1
s4 2
s5 1
